(set-info :smt-lib-version 2.6)
(set-logic QF_NIA)
(set-info :source |AProve team, see http://aprove.informatik.rwth-aachen.de/, submitted for SMT-COMP 2014|)
(set-info :category "industrial")
(set-info :status unknown)
(declare-fun b__111 () Int)
(declare-fun a__14 () Int)
(declare-fun a__2 () Int)
(declare-fun a__3 () Int)
(declare-fun a__4 () Int)
(declare-fun a__8 () Int)
(declare-fun a__56 () Int)
(declare-fun a__7 () Int)
(declare-fun a__57 () Int)
(declare-fun a__59 () Int)
(declare-fun a__60 () Int)
(declare-fun a__10 () Int)
(declare-fun a__76 () Int)
(declare-fun a__87 () Int)
(declare-fun a__88 () Int)
(declare-fun a__89 () Int)
(declare-fun a__101 () Int)
(declare-fun a__91 () Int)
(declare-fun a__92 () Int)
(declare-fun a__93 () Int)
(declare-fun a__104 () Int)
(declare-fun a__74 () Int)
(declare-fun a__80 () Int)
(declare-fun a__110 () Int)
(declare-fun a__81 () Int)
(declare-fun a__83 () Int)
(declare-fun a__84 () Int)
(declare-fun a__85 () Int)
(declare-fun a__98 () Int)
(declare-fun a__64 () Int)
(declare-fun b__112 () Int)
(declare-fun a__97 () Int)
(declare-fun a__62 () Int)
(declare-fun a__19 () Int)
(declare-fun a__66 () Int)
(declare-fun a__100 () Int)
(declare-fun a__71 () Int)
(declare-fun a__103 () Int)
(declare-fun a__20 () Int)
(declare-fun a__49 () Int)
(declare-fun a__95 () Int)
(declare-fun a__50 () Int)
(declare-fun b__113 () Int)
(declare-fun b__114 () Int)
(declare-fun a__12 () Int)
(declare-fun a__16 () Int)
(declare-fun a__22 () Int)
(declare-fun a__17 () Int)
(declare-fun a__24 () Int)
(declare-fun a__11 () Int)
(declare-fun a__25 () Int)
(declare-fun a__26 () Int)
(declare-fun a__27 () Int)
(declare-fun a__30 () Int)
(declare-fun a__28 () Int)
(declare-fun a__31 () Int)
(declare-fun a__29 () Int)
(declare-fun a__32 () Int)
(declare-fun a__33 () Int)
(declare-fun a__34 () Int)
(declare-fun a__35 () Int)
(declare-fun a__37 () Int)
(declare-fun a__36 () Int)
(declare-fun a__38 () Int)
(declare-fun a__39 () Int)
(declare-fun a__41 () Int)
(declare-fun a__40 () Int)
(declare-fun a__42 () Int)
(declare-fun a__15 () Int)
(declare-fun a__43 () Int)
(declare-fun a__44 () Int)
(declare-fun a__45 () Int)
(declare-fun a__23 () Int)
(declare-fun a__46 () Int)
(declare-fun a__47 () Int)
(declare-fun a__18 () Int)
(declare-fun a__21 () Int)
(declare-fun a__5 () Int)
(declare-fun a__48 () Int)
(declare-fun a__51 () Int)
(declare-fun a__52 () Int)
(declare-fun a__53 () Int)
(declare-fun a__54 () Int)
(declare-fun a__9 () Int)
(declare-fun a__55 () Int)
(declare-fun a__58 () Int)
(declare-fun a__61 () Int)
(declare-fun a__63 () Int)
(declare-fun a__65 () Int)
(declare-fun a__67 () Int)
(declare-fun a__68 () Int)
(declare-fun a__69 () Int)
(declare-fun a__70 () Int)
(declare-fun a__73 () Int)
(declare-fun a__72 () Int)
(declare-fun a__75 () Int)
(declare-fun a__77 () Int)
(declare-fun a__78 () Int)
(declare-fun a__79 () Int)
(declare-fun a__82 () Int)
(declare-fun a__86 () Int)
(declare-fun a__90 () Int)
(declare-fun a__94 () Int)
(declare-fun a__96 () Int)
(declare-fun a__99 () Int)
(declare-fun a__102 () Int)
(declare-fun a__105 () Int)
(declare-fun a__106 () Int)
(declare-fun a__107 () Int)
(declare-fun a__108 () Int)
(declare-fun a__109 () Int)
(declare-fun a__1 () Int)
(declare-fun a__6 () Int)
(declare-fun a__13 () Int)
(assert (and (>= (+ 1 (* (- 0 1) b__111)) 0) (= (+ (* b__111 a__14) (* (- 0 1) a__14)) 0) (= (+ (* b__111 a__2) (* (- 0 1) a__2)) 0) (= (+ (* b__111 a__3) (* (- 0 1) a__3)) 0) (= (+ (* b__111 a__4) (* (- 0 1) a__4)) 0) (= (+ (* b__111 a__8) (* (- 0 1) a__8)) 0) (= (+ (* b__111 a__56 a__7) (* (- 0 1) (* a__56 a__7))) 0) (= (+ (* b__111 a__57 a__7) (* (- 0 1) (* a__57 a__7))) 0) (= (+ (* b__111 a__59 a__7) (* (- 0 1) (* a__59 a__7))) 0) (= (+ (* b__111 a__60 a__7) (* (- 0 1) (* a__60 a__7))) 0) (= (+ (* b__111 a__7 a__10) (* (- 0 1) (* a__7 a__10))) 0) (= (+ (* b__111 a__76 a__7 a__87) (* (- 0 1) (* a__76 a__7 a__87))) 0) (= (+ (* b__111 a__76 a__7 a__88) (* (- 0 1) (* a__76 a__7 a__88))) 0) (= (+ (* b__111 a__76 a__7 a__89) (* (- 0 1) (* a__76 a__7 a__89))) 0) (= (+ (* b__111 a__76 a__7 a__101) (* (- 0 1) (* a__76 a__7 a__101))) 0) (= (+ (* b__111 a__76 a__7 a__91) (* (- 0 1) (* a__76 a__7 a__91))) 0) (= (+ (* b__111 a__76 a__7 a__92) (* (- 0 1) (* a__76 a__7 a__92))) 0) (= (+ (* b__111 a__76 a__7 a__93) (* (- 0 1) (* a__76 a__7 a__93))) 0) (= (+ (* b__111 a__76 a__7 a__104) (* (- 0 1) (* a__76 a__7 a__104))) 0) (= (+ (* b__111 a__76 a__7 a__74) (* (- 0 1) (* a__76 a__7 a__74))) 0) (= (+ (* b__111 a__76 a__80 a__7 a__110) (* (- 0 1) (* a__76 a__80 a__7 a__110))) 0) (= (+ (* b__111 a__76 a__81 a__7 a__110) (* (- 0 1) (* a__76 a__81 a__7 a__110))) 0) (= (+ (* b__111 a__76 a__83 a__7 a__110) (* (- 0 1) (* a__76 a__83 a__7 a__110))) 0) (= (+ (* b__111 a__76 a__84 a__7 a__110) (* (- 0 1) (* a__76 a__84 a__7 a__110))) 0) (= (+ (* b__111 a__76 a__85 a__7 a__110) (* (- 0 1) (* a__76 a__85 a__7 a__110))) 0) (= (+ (* b__111 a__76 a__98 a__7 a__110) (* (- 0 1) (* a__76 a__98 a__7 a__110))) 0) (= (+ (* b__111 a__76 a__7 a__110 a__64) (* (- 0 1) (* a__76 a__7 a__110 a__64))) 0) (>= (+ 1 (* (- 0 1) b__112)) 0) (= (+ (* b__112 a__7) (* (- 0 1) a__7)) 0) (= (+ (* b__112 a__14 a__97 a__62 a__19) (* (- 0 1) (* a__14 a__97 a__62 a__19))) 0) (= (+ (* b__112 a__14 a__97 a__66 a__19) (* (- 0 1) (* a__14 a__97 a__66 a__19))) 0) (= (+ (* b__112 a__14 a__100 a__71 a__19) (* (- 0 1) (* a__14 a__100 a__71 a__19))) 0) (= (+ (* b__112 a__14 a__103 a__71 a__19) (* (- 0 1) (* a__14 a__103 a__71 a__19))) 0) (= (+ (* b__112 a__14 a__71 a__20 a__49) (* (- 0 1) (* a__14 a__71 a__20 a__49))) 0) (= (+ (* b__112 a__2 a__97 a__62 a__19) (* (- 0 1) (* a__2 a__97 a__62 a__19))) 0) (= (+ (* b__112 a__2 a__97 a__66 a__19) (* (- 0 1) (* a__2 a__97 a__66 a__19))) 0) (= (+ (* b__112 a__2 a__100 a__71 a__19) (* (- 0 1) (* a__2 a__100 a__71 a__19))) 0) (= (+ (* b__112 a__2 a__103 a__71 a__19) (* (- 0 1) (* a__2 a__103 a__71 a__19))) 0) (= (+ (* b__112 a__2 a__71 a__20 a__49) (* (- 0 1) (* a__2 a__71 a__20 a__49))) 0) (= (+ (* b__112 a__3 a__97 a__62 a__19) (* (- 0 1) (* a__3 a__97 a__62 a__19))) 0) (= (+ (* b__112 a__3 a__97 a__66 a__19) (* (- 0 1) (* a__3 a__97 a__66 a__19))) 0) (= (+ (* b__112 a__3 a__100 a__71 a__19) (* (- 0 1) (* a__3 a__100 a__71 a__19))) 0) (= (+ (* b__112 a__3 a__103 a__71 a__19) (* (- 0 1) (* a__3 a__103 a__71 a__19))) 0) (= (+ (* b__112 a__3 a__71 a__20 a__49) (* (- 0 1) (* a__3 a__71 a__20 a__49))) 0) (= (+ (* b__112 a__4 a__97 a__62 a__19) (* (- 0 1) (* a__4 a__97 a__62 a__19))) 0) (= (+ (* b__112 a__4 a__97 a__66 a__19) (* (- 0 1) (* a__4 a__97 a__66 a__19))) 0) (= (+ (* b__112 a__4 a__100 a__71 a__19) (* (- 0 1) (* a__4 a__100 a__71 a__19))) 0) (= (+ (* b__112 a__4 a__103 a__71 a__19) (* (- 0 1) (* a__4 a__103 a__71 a__19))) 0) (= (+ (* b__112 a__4 a__71 a__20 a__49) (* (- 0 1) (* a__4 a__71 a__20 a__49))) 0) (= (+ (* b__112 a__97 a__8 a__62 a__19) (* (- 0 1) (* a__97 a__8 a__62 a__19))) 0) (= (+ (* b__112 a__97 a__8 a__66 a__19) (* (- 0 1) (* a__97 a__8 a__66 a__19))) 0) (= (+ (* b__112 a__8 a__100 a__71 a__19) (* (- 0 1) (* a__8 a__100 a__71 a__19))) 0) (= (+ (* b__112 a__8 a__103 a__71 a__19) (* (- 0 1) (* a__8 a__103 a__71 a__19))) 0) (= (+ (* b__112 a__8 a__71 a__20 a__49) (* (- 0 1) (* a__8 a__71 a__20 a__49))) 0) (= (+ (* b__112 a__14 a__95 a__100 a__62 a__19) (* (- 0 1) (* a__14 a__95 a__100 a__62 a__19))) 0) (= (+ (* b__112 a__14 a__95 a__100 a__66 a__19) (* (- 0 1) (* a__14 a__95 a__100 a__66 a__19))) 0) (= (+ (* b__112 a__14 a__95 a__103 a__62 a__19) (* (- 0 1) (* a__14 a__95 a__103 a__62 a__19))) 0) (= (+ (* b__112 a__14 a__95 a__103 a__66 a__19) (* (- 0 1) (* a__14 a__95 a__103 a__66 a__19))) 0) (= (+ (* b__112 a__14 a__97 a__110 a__71 a__19) (* (- 0 1) (* a__14 a__97 a__110 a__71 a__19))) 0) (= (+ (* b__112 a__14 a__66 a__19 a__20 a__49) (* (- 0 1) (* a__14 a__66 a__19 a__20 a__49))) 0) (= (+ (* b__112 a__14 a__66 a__20 a__49 a__50) (* (- 0 1) (* a__14 a__66 a__20 a__49 a__50))) 0) (= (+ (* b__112 a__95 a__2 a__100 a__62 a__19) (* (- 0 1) (* a__95 a__2 a__100 a__62 a__19))) 0) (= (+ (* b__112 a__95 a__2 a__100 a__66 a__19) (* (- 0 1) (* a__95 a__2 a__100 a__66 a__19))) 0) (= (+ (* b__112 a__95 a__2 a__103 a__62 a__19) (* (- 0 1) (* a__95 a__2 a__103 a__62 a__19))) 0) (= (+ (* b__112 a__95 a__2 a__103 a__66 a__19) (* (- 0 1) (* a__95 a__2 a__103 a__66 a__19))) 0) (= (+ (* b__112 a__95 a__3 a__100 a__62 a__19) (* (- 0 1) (* a__95 a__3 a__100 a__62 a__19))) 0) (= (+ (* b__112 a__95 a__3 a__100 a__66 a__19) (* (- 0 1) (* a__95 a__3 a__100 a__66 a__19))) 0) (= (+ (* b__112 a__95 a__3 a__103 a__62 a__19) (* (- 0 1) (* a__95 a__3 a__103 a__62 a__19))) 0) (= (+ (* b__112 a__95 a__3 a__103 a__66 a__19) (* (- 0 1) (* a__95 a__3 a__103 a__66 a__19))) 0) (= (+ (* b__112 a__95 a__4 a__100 a__62 a__19) (* (- 0 1) (* a__95 a__4 a__100 a__62 a__19))) 0) (= (+ (* b__112 a__95 a__4 a__100 a__66 a__19) (* (- 0 1) (* a__95 a__4 a__100 a__66 a__19))) 0) (= (+ (* b__112 a__95 a__4 a__103 a__62 a__19) (* (- 0 1) (* a__95 a__4 a__103 a__62 a__19))) 0) (= (+ (* b__112 a__95 a__4 a__103 a__66 a__19) (* (- 0 1) (* a__95 a__4 a__103 a__66 a__19))) 0) (= (+ (* b__112 a__95 a__8 a__100 a__62 a__19) (* (- 0 1) (* a__95 a__8 a__100 a__62 a__19))) 0) (= (+ (* b__112 a__95 a__8 a__100 a__66 a__19) (* (- 0 1) (* a__95 a__8 a__100 a__66 a__19))) 0) (= (+ (* b__112 a__95 a__8 a__103 a__62 a__19) (* (- 0 1) (* a__95 a__8 a__103 a__62 a__19))) 0) (= (+ (* b__112 a__95 a__8 a__103 a__66 a__19) (* (- 0 1) (* a__95 a__8 a__103 a__66 a__19))) 0) (= (+ (* b__112 a__2 a__97 a__110 a__71 a__19) (* (- 0 1) (* a__2 a__97 a__110 a__71 a__19))) 0) (= (+ (* b__112 a__2 a__66 a__19 a__20 a__49) (* (- 0 1) (* a__2 a__66 a__19 a__20 a__49))) 0) (= (+ (* b__112 a__2 a__66 a__20 a__49 a__50) (* (- 0 1) (* a__2 a__66 a__20 a__49 a__50))) 0) (= (+ (* b__112 a__3 a__97 a__110 a__71 a__19) (* (- 0 1) (* a__3 a__97 a__110 a__71 a__19))) 0) (= (+ (* b__112 a__3 a__66 a__19 a__20 a__49) (* (- 0 1) (* a__3 a__66 a__19 a__20 a__49))) 0) (= (+ (* b__112 a__3 a__66 a__20 a__49 a__50) (* (- 0 1) (* a__3 a__66 a__20 a__49 a__50))) 0) (= (+ (* b__112 a__4 a__97 a__110 a__71 a__19) (* (- 0 1) (* a__4 a__97 a__110 a__71 a__19))) 0) (= (+ (* b__112 a__4 a__66 a__19 a__20 a__49) (* (- 0 1) (* a__4 a__66 a__19 a__20 a__49))) 0) (= (+ (* b__112 a__4 a__66 a__20 a__49 a__50) (* (- 0 1) (* a__4 a__66 a__20 a__49 a__50))) 0) (= (+ (* b__112 a__97 a__8 a__110 a__71 a__19) (* (- 0 1) (* a__97 a__8 a__110 a__71 a__19))) 0) (= (+ (* b__112 a__8 a__66 a__19 a__20 a__49) (* (- 0 1) (* a__8 a__66 a__19 a__20 a__49))) 0) (= (+ (* b__112 a__8 a__66 a__20 a__49 a__50) (* (- 0 1) (* a__8 a__66 a__20 a__49 a__50))) 0) (>= (+ 1 (* (- 0 1) b__113)) 0) (= (+ (* b__113 a__14 a__62 a__19) (* (- 0 1) (* a__14 a__62 a__19))) 0) (= (+ (* b__113 a__14 a__66 a__19) (* (- 0 1) (* a__14 a__66 a__19))) 0) (= (+ (* b__113 a__76 a__7 a__110) (* (- 0 1) (* a__76 a__7 a__110))) 0) (= (+ (* b__113 a__2 a__62 a__19) (* (- 0 1) (* a__2 a__62 a__19))) 0) (= (+ (* b__113 a__2 a__66 a__19) (* (- 0 1) (* a__2 a__66 a__19))) 0) (= (+ (* b__113 a__3 a__62 a__19) (* (- 0 1) (* a__3 a__62 a__19))) 0) (= (+ (* b__113 a__3 a__66 a__19) (* (- 0 1) (* a__3 a__66 a__19))) 0) (= (+ (* b__113 a__4 a__62 a__19) (* (- 0 1) (* a__4 a__62 a__19))) 0) (= (+ (* b__113 a__4 a__66 a__19) (* (- 0 1) (* a__4 a__66 a__19))) 0) (= (+ (* b__113 a__8 a__62 a__19) (* (- 0 1) (* a__8 a__62 a__19))) 0) (= (+ (* b__113 a__8 a__66 a__19) (* (- 0 1) (* a__8 a__66 a__19))) 0) (= (+ (* b__113 a__14 a__110 a__71 a__19) (* (- 0 1) (* a__14 a__110 a__71 a__19))) 0) (= (+ (* b__113 a__56 a__7 a__62 a__19) (* (- 0 1) (* a__56 a__7 a__62 a__19))) 0) (= (+ (* b__113 a__56 a__7 a__66 a__19) (* (- 0 1) (* a__56 a__7 a__66 a__19))) 0) (= (+ (* b__113 a__57 a__7 a__62 a__19) (* (- 0 1) (* a__57 a__7 a__62 a__19))) 0) (= (+ (* b__113 a__57 a__7 a__66 a__19) (* (- 0 1) (* a__57 a__7 a__66 a__19))) 0) (= (+ (* b__113 a__59 a__7 a__62 a__19) (* (- 0 1) (* a__59 a__7 a__62 a__19))) 0) (= (+ (* b__113 a__59 a__7 a__66 a__19) (* (- 0 1) (* a__59 a__7 a__66 a__19))) 0) (= (+ (* b__113 a__60 a__7 a__62 a__19) (* (- 0 1) (* a__60 a__7 a__62 a__19))) 0) (= (+ (* b__113 a__60 a__7 a__66 a__19) (* (- 0 1) (* a__60 a__7 a__66 a__19))) 0) (= (+ (* b__113 a__2 a__110 a__71 a__19) (* (- 0 1) (* a__2 a__110 a__71 a__19))) 0) (= (+ (* b__113 a__3 a__110 a__71 a__19) (* (- 0 1) (* a__3 a__110 a__71 a__19))) 0) (= (+ (* b__113 a__4 a__110 a__71 a__19) (* (- 0 1) (* a__4 a__110 a__71 a__19))) 0) (= (+ (* b__113 a__7 a__62 a__19 a__10) (* (- 0 1) (* a__7 a__62 a__19 a__10))) 0) (= (+ (* b__113 a__7 a__66 a__19 a__10) (* (- 0 1) (* a__7 a__66 a__19 a__10))) 0) (= (+ (* b__113 a__8 a__110 a__71 a__19) (* (- 0 1) (* a__8 a__110 a__71 a__19))) 0) (= (+ (* b__113 a__56 a__7 a__110 a__71 a__19) (* (- 0 1) (* a__56 a__7 a__110 a__71 a__19))) 0) (= (+ (* b__113 a__57 a__7 a__110 a__71 a__19) (* (- 0 1) (* a__57 a__7 a__110 a__71 a__19))) 0) (= (+ (* b__113 a__76 a__7 a__87 a__62 a__19) (* (- 0 1) (* a__76 a__7 a__87 a__62 a__19))) 0) (= (+ (* b__113 a__76 a__7 a__87 a__66 a__19) (* (- 0 1) (* a__76 a__7 a__87 a__66 a__19))) 0) (= (+ (* b__113 a__76 a__7 a__88 a__62 a__19) (* (- 0 1) (* a__76 a__7 a__88 a__62 a__19))) 0) (= (+ (* b__113 a__76 a__7 a__88 a__66 a__19) (* (- 0 1) (* a__76 a__7 a__88 a__66 a__19))) 0) (= (+ (* b__113 a__76 a__7 a__89 a__62 a__19) (* (- 0 1) (* a__76 a__7 a__89 a__62 a__19))) 0) (= (+ (* b__113 a__76 a__7 a__89 a__66 a__19) (* (- 0 1) (* a__76 a__7 a__89 a__66 a__19))) 0) (= (+ (* b__113 a__76 a__7 a__101 a__62 a__19) (* (- 0 1) (* a__76 a__7 a__101 a__62 a__19))) 0) (= (+ (* b__113 a__76 a__7 a__101 a__66 a__19) (* (- 0 1) (* a__76 a__7 a__101 a__66 a__19))) 0) (= (+ (* b__113 a__76 a__7 a__91 a__62 a__19) (* (- 0 1) (* a__76 a__7 a__91 a__62 a__19))) 0) (= (+ (* b__113 a__76 a__7 a__91 a__66 a__19) (* (- 0 1) (* a__76 a__7 a__91 a__66 a__19))) 0) (= (+ (* b__113 a__76 a__7 a__92 a__62 a__19) (* (- 0 1) (* a__76 a__7 a__92 a__62 a__19))) 0) (= (+ (* b__113 a__76 a__7 a__92 a__66 a__19) (* (- 0 1) (* a__76 a__7 a__92 a__66 a__19))) 0) (= (+ (* b__113 a__76 a__7 a__93 a__62 a__19) (* (- 0 1) (* a__76 a__7 a__93 a__62 a__19))) 0) (= (+ (* b__113 a__76 a__7 a__93 a__66 a__19) (* (- 0 1) (* a__76 a__7 a__93 a__66 a__19))) 0) (= (+ (* b__113 a__76 a__7 a__104 a__62 a__19) (* (- 0 1) (* a__76 a__7 a__104 a__62 a__19))) 0) (= (+ (* b__113 a__76 a__7 a__104 a__66 a__19) (* (- 0 1) (* a__76 a__7 a__104 a__66 a__19))) 0) (= (+ (* b__113 a__76 a__7 a__62 a__19 a__74) (* (- 0 1) (* a__76 a__7 a__62 a__19 a__74))) 0) (= (+ (* b__113 a__76 a__7 a__66 a__19 a__74) (* (- 0 1) (* a__76 a__7 a__66 a__19 a__74))) 0) (= (+ (* b__113 a__59 a__7 a__110 a__71 a__19) (* (- 0 1) (* a__59 a__7 a__110 a__71 a__19))) 0) (= (+ (* b__113 a__60 a__7 a__110 a__71 a__19) (* (- 0 1) (* a__60 a__7 a__110 a__71 a__19))) 0) (= (+ (* b__113 a__7 a__110 a__71 a__19 a__10) (* (- 0 1) (* a__7 a__110 a__71 a__19 a__10))) 0) (= (+ (* b__113 a__14 a__76 a__110 a__71 a__20 a__49) (* (- 0 1) (* a__14 a__76 a__110 a__71 a__20 a__49))) 0) (= (+ (* b__113 a__76 a__2 a__110 a__71 a__20 a__49) (* (- 0 1) (* a__76 a__2 a__110 a__71 a__20 a__49))) 0) (= (+ (* b__113 a__76 a__3 a__110 a__71 a__20 a__49) (* (- 0 1) (* a__76 a__3 a__110 a__71 a__20 a__49))) 0) (= (+ (* b__113 a__76 a__4 a__110 a__71 a__20 a__49) (* (- 0 1) (* a__76 a__4 a__110 a__71 a__20 a__49))) 0) (= (+ (* b__113 a__76 a__8 a__110 a__71 a__20 a__49) (* (- 0 1) (* a__76 a__8 a__110 a__71 a__20 a__49))) 0) (= (+ (* b__113 a__14 a__76 a__110 a__66 a__20 a__49 a__50) (* (- 0 1) (* a__14 a__76 a__110 a__66 a__20 a__49 a__50))) 0) (= (+ (* b__113 a__76 a__2 a__110 a__66 a__20 a__49 a__50) (* (- 0 1) (* a__76 a__2 a__110 a__66 a__20 a__49 a__50))) 0) (= (+ (* b__113 a__76 a__3 a__110 a__66 a__20 a__49 a__50) (* (- 0 1) (* a__76 a__3 a__110 a__66 a__20 a__49 a__50))) 0) (= (+ (* b__113 a__76 a__4 a__110 a__66 a__20 a__49 a__50) (* (- 0 1) (* a__76 a__4 a__110 a__66 a__20 a__49 a__50))) 0) (= (+ (* b__113 a__76 a__8 a__110 a__66 a__20 a__49 a__50) (* (- 0 1) (* a__76 a__8 a__110 a__66 a__20 a__49 a__50))) 0) (>= (+ 1 (* (- 0 1) b__114)) 0) (= (+ (* b__114 a__76 a__7) (* (- 0 1) (* a__76 a__7))) 0) (= (+ (* b__114 a__14 a__71 a__19) (* (- 0 1) (* a__14 a__71 a__19))) 0) (= (+ (* b__114 a__2 a__71 a__19) (* (- 0 1) (* a__2 a__71 a__19))) 0) (= (+ (* b__114 a__3 a__71 a__19) (* (- 0 1) (* a__3 a__71 a__19))) 0) (= (+ (* b__114 a__4 a__71 a__19) (* (- 0 1) (* a__4 a__71 a__19))) 0) (= (+ (* b__114 a__8 a__71 a__19) (* (- 0 1) (* a__8 a__71 a__19))) 0) (= (+ (* b__114 a__14 a__95 a__62 a__19) (* (- 0 1) (* a__14 a__95 a__62 a__19))) 0) (= (+ (* b__114 a__14 a__95 a__66 a__19) (* (- 0 1) (* a__14 a__95 a__66 a__19))) 0) (= (+ (* b__114 a__56 a__7 a__71 a__19) (* (- 0 1) (* a__56 a__7 a__71 a__19))) 0) (= (+ (* b__114 a__57 a__7 a__71 a__19) (* (- 0 1) (* a__57 a__7 a__71 a__19))) 0) (= (+ (* b__114 a__59 a__7 a__71 a__19) (* (- 0 1) (* a__59 a__7 a__71 a__19))) 0) (= (+ (* b__114 a__60 a__7 a__71 a__19) (* (- 0 1) (* a__60 a__7 a__71 a__19))) 0) (= (+ (* b__114 a__95 a__2 a__62 a__19) (* (- 0 1) (* a__95 a__2 a__62 a__19))) 0) (= (+ (* b__114 a__95 a__2 a__66 a__19) (* (- 0 1) (* a__95 a__2 a__66 a__19))) 0) (= (+ (* b__114 a__95 a__3 a__62 a__19) (* (- 0 1) (* a__95 a__3 a__62 a__19))) 0) (= (+ (* b__114 a__95 a__3 a__66 a__19) (* (- 0 1) (* a__95 a__3 a__66 a__19))) 0) (= (+ (* b__114 a__95 a__4 a__62 a__19) (* (- 0 1) (* a__95 a__4 a__62 a__19))) 0) (= (+ (* b__114 a__95 a__4 a__66 a__19) (* (- 0 1) (* a__95 a__4 a__66 a__19))) 0) (= (+ (* b__114 a__95 a__8 a__62 a__19) (* (- 0 1) (* a__95 a__8 a__62 a__19))) 0) (= (+ (* b__114 a__95 a__8 a__66 a__19) (* (- 0 1) (* a__95 a__8 a__66 a__19))) 0) (= (+ (* b__114 a__7 a__71 a__19 a__10) (* (- 0 1) (* a__7 a__71 a__19 a__10))) 0) (= (+ (* b__114 a__14 a__76 a__97 a__62 a__19) (* (- 0 1) (* a__14 a__76 a__97 a__62 a__19))) 0) (= (+ (* b__114 a__14 a__76 a__97 a__66 a__19) (* (- 0 1) (* a__14 a__76 a__97 a__66 a__19))) 0) (= (+ (* b__114 a__14 a__76 a__71 a__20 a__49) (* (- 0 1) (* a__14 a__76 a__71 a__20 a__49))) 0) (= (+ (* b__114 a__56 a__95 a__7 a__62 a__19) (* (- 0 1) (* a__56 a__95 a__7 a__62 a__19))) 0) (= (+ (* b__114 a__56 a__95 a__7 a__66 a__19) (* (- 0 1) (* a__56 a__95 a__7 a__66 a__19))) 0) (= (+ (* b__114 a__57 a__95 a__7 a__62 a__19) (* (- 0 1) (* a__57 a__95 a__7 a__62 a__19))) 0) (= (+ (* b__114 a__57 a__95 a__7 a__66 a__19) (* (- 0 1) (* a__57 a__95 a__7 a__66 a__19))) 0) (= (+ (* b__114 a__76 a__2 a__97 a__62 a__19) (* (- 0 1) (* a__76 a__2 a__97 a__62 a__19))) 0) (= (+ (* b__114 a__76 a__2 a__97 a__66 a__19) (* (- 0 1) (* a__76 a__2 a__97 a__66 a__19))) 0) (= (+ (* b__114 a__76 a__2 a__71 a__20 a__49) (* (- 0 1) (* a__76 a__2 a__71 a__20 a__49))) 0) (= (+ (* b__114 a__76 a__3 a__97 a__62 a__19) (* (- 0 1) (* a__76 a__3 a__97 a__62 a__19))) 0) (= (+ (* b__114 a__76 a__3 a__97 a__66 a__19) (* (- 0 1) (* a__76 a__3 a__97 a__66 a__19))) 0) (= (+ (* b__114 a__76 a__3 a__71 a__20 a__49) (* (- 0 1) (* a__76 a__3 a__71 a__20 a__49))) 0) (= (+ (* b__114 a__76 a__4 a__97 a__62 a__19) (* (- 0 1) (* a__76 a__4 a__97 a__62 a__19))) 0) (= (+ (* b__114 a__76 a__4 a__97 a__66 a__19) (* (- 0 1) (* a__76 a__4 a__97 a__66 a__19))) 0) (= (+ (* b__114 a__76 a__4 a__71 a__20 a__49) (* (- 0 1) (* a__76 a__4 a__71 a__20 a__49))) 0) (= (+ (* b__114 a__76 a__97 a__8 a__62 a__19) (* (- 0 1) (* a__76 a__97 a__8 a__62 a__19))) 0) (= (+ (* b__114 a__76 a__97 a__8 a__66 a__19) (* (- 0 1) (* a__76 a__97 a__8 a__66 a__19))) 0) (= (+ (* b__114 a__76 a__8 a__71 a__20 a__49) (* (- 0 1) (* a__76 a__8 a__71 a__20 a__49))) 0) (= (+ (* b__114 a__59 a__95 a__7 a__62 a__19) (* (- 0 1) (* a__59 a__95 a__7 a__62 a__19))) 0) (= (+ (* b__114 a__59 a__95 a__7 a__66 a__19) (* (- 0 1) (* a__59 a__95 a__7 a__66 a__19))) 0) (= (+ (* b__114 a__60 a__95 a__7 a__62 a__19) (* (- 0 1) (* a__60 a__95 a__7 a__62 a__19))) 0) (= (+ (* b__114 a__60 a__95 a__7 a__66 a__19) (* (- 0 1) (* a__60 a__95 a__7 a__66 a__19))) 0) (= (+ (* b__114 a__95 a__7 a__62 a__19 a__10) (* (- 0 1) (* a__95 a__7 a__62 a__19 a__10))) 0) (= (+ (* b__114 a__95 a__7 a__66 a__19 a__10) (* (- 0 1) (* a__95 a__7 a__66 a__19 a__10))) 0) (= (+ (* b__114 a__14 a__76 a__66 a__19 a__20 a__49) (* (- 0 1) (* a__14 a__76 a__66 a__19 a__20 a__49))) 0) (= (+ (* b__114 a__14 a__76 a__66 a__20 a__49 a__50) (* (- 0 1) (* a__14 a__76 a__66 a__20 a__49 a__50))) 0) (= (+ (* b__114 a__76 a__2 a__66 a__19 a__20 a__49) (* (- 0 1) (* a__76 a__2 a__66 a__19 a__20 a__49))) 0) (= (+ (* b__114 a__76 a__2 a__66 a__20 a__49 a__50) (* (- 0 1) (* a__76 a__2 a__66 a__20 a__49 a__50))) 0) (= (+ (* b__114 a__76 a__3 a__66 a__19 a__20 a__49) (* (- 0 1) (* a__76 a__3 a__66 a__19 a__20 a__49))) 0) (= (+ (* b__114 a__76 a__3 a__66 a__20 a__49 a__50) (* (- 0 1) (* a__76 a__3 a__66 a__20 a__49 a__50))) 0) (= (+ (* b__114 a__76 a__4 a__66 a__19 a__20 a__49) (* (- 0 1) (* a__76 a__4 a__66 a__19 a__20 a__49))) 0) (= (+ (* b__114 a__76 a__4 a__66 a__20 a__49 a__50) (* (- 0 1) (* a__76 a__4 a__66 a__20 a__49 a__50))) 0) (= (+ (* b__114 a__76 a__8 a__66 a__19 a__20 a__49) (* (- 0 1) (* a__76 a__8 a__66 a__19 a__20 a__49))) 0) (= (+ (* b__114 a__76 a__8 a__66 a__20 a__49 a__50) (* (- 0 1) (* a__76 a__8 a__66 a__20 a__49 a__50))) 0) (>= (+ a__3 (* (- 0 1) (* a__12 a__10 a__7))) 0) (>= (+ a__4 (* (- 0 1) (* a__12 a__8))) 0) (>= (+ a__8 (* (- 0 1) (* a__12 a__14))) 0) (>= (+ (* a__16 a__14) (* (- 0 1) (* a__12 a__22 a__19 a__2)) (* (- 0 1) (* a__12 a__3))) 0) (>= (+ (* a__17 a__14) (* (- 0 1) (* a__12 a__24 a__20 a__2)) (* (- 0 1) (* a__12 a__4))) 0) (>= (+ (* b__111 a__11) (* b__111 a__25 a__12) (* (- 0 1) (* b__111 a__26))) 0) (>= (+ (* b__111 a__11) (* b__111 a__27 a__12) (* (- 0 1) (* b__111 a__30))) 0) (>= (+ (* b__111 a__28 a__12) (* (- 0 1) (* b__111 a__31))) 0) (>= (+ (* b__111 a__29 a__12) (* (- 0 1) (* b__111 a__32))) 0) (>= (+ (* b__111 a__11) (* b__111 a__33 a__12) (* (- 0 1) (* b__111 a__34))) 0) (>= (+ (* b__111 a__11) (* b__111 a__35 a__12) (* (- 0 1) (* b__111 a__37))) 0) (>= (+ (* b__111 a__36 a__12) (* (- 0 1) (* b__111 a__38))) 0) (>= (+ (* b__111 a__11) (* b__111 a__39 a__12) (* (- 0 1) (* b__111 a__41))) 0) (>= (+ (* b__111 a__40 a__12) (* (- 0 1) (* b__111 a__42))) 0) (>= (+ (* b__111 a__11) (* b__111 a__15 a__12) (* (- 0 1) (* b__111 a__43))) 0) (>= (+ (* b__111 a__16 a__12) (* (- 0 1) (* b__111 a__44))) 0) (>= (+ (* b__111 a__17 a__12) (* (- 0 1) (* b__111 a__45))) 0) (>= (+ (* b__111 a__11) (* b__111 a__23 a__12) (* (- 0 1) (* b__111 a__46))) 0) (>= (+ (* b__111 a__24 a__12) (* (- 0 1) (* b__111 a__47))) 0) (>= (+ (* b__111 a__46) (* b__111 a__15 a__47) (* (- 0 1) (* b__111 a__18)) (* (- 0 1) (* b__111 a__21 a__19)) (* (- 0 1) (* b__111 a__11 a__22 a__19)) (* (- 0 1) (* b__111 a__23 a__20)) (* (- 0 1) (* b__111 a__11 a__24 a__20))) 0) (>= (+ (* b__111 a__16 a__47) (* (- 0 1) (* b__111 a__12 a__22 a__19))) 0) (>= (+ (* b__111 a__17 a__47) (* (- 0 1) (* b__111 a__12 a__24 a__20))) 0) (>= (+ (* b__111 a__18) (* b__111 a__5 a__19) (* (- 0 1) (* b__111 a__11))) 0) (>= (+ (* b__111 a__20) (* (- 0 1) (* b__111 a__12))) 0) (>= (+ (* b__111 a__11) (* b__111 a__48 a__12) (* (- 0 1) (* b__111 a__18))) 0) (>= (+ (* b__111 a__49 a__12) (* (- 0 1) (* b__111 a__19))) 0) (>= (+ (* b__111 a__50 a__12) (* (- 0 1) (* b__111 a__20))) 0) (>= (+ (* b__111 a__11) (* b__111 a__51 a__12) (* (- 0 1) (* b__111 a__21))) 0) (>= (+ (* b__111 a__52 a__12) (* (- 0 1) (* b__111 a__22))) 0) (>= (+ (* b__111 a__21) (* b__111 a__35 a__22) (* (- 0 1) (* b__111 a__46)) (* (- 0 1) (* b__111 a__11 a__47))) 0) (>= (+ (* b__111 a__36 a__22) (* (- 0 1) (* b__111 a__12 a__47))) 0) (>= (+ (* b__111 a__46) (* b__111 a__27 a__47) (* (- 0 1) (* b__111 a__18)) (* (- 0 1) (* b__111 a__21 a__19)) (* (- 0 1) (* b__111 a__11 a__22 a__19)) (* (- 0 1) (* b__111 a__23 a__20)) (* (- 0 1) (* b__111 a__11 a__24 a__20))) 0) (>= (+ (* b__111 a__28 a__47) (* (- 0 1) (* b__111 a__12 a__22 a__19))) 0) (>= (+ (* b__111 a__29 a__47) (* (- 0 1) (* b__111 a__12 a__24 a__20))) 0) (>= (+ (* b__111 a__39 a__22) (* (- 0 1) (* b__111 a__11 a__22))) 0) (>= (+ (* b__111 a__40 a__22) (* (- 0 1) (* b__111 a__12 a__22))) 0) (>= (+ (* b__111 a__11) (* b__111 a__53 a__12) (* (- 0 1) (* b__111 a__54))) 0) (>= (+ (* b__111 a__12) (* (- 0 1) b__111)) 0) (>= (+ (* b__112 a__9) (* b__112 a__33 a__10) (* (- 0 1) (* b__112 a__5))) 0) (>= (+ (* b__112 a__9) (* b__112 a__35 a__10) (* (- 0 1) (* b__112 a__55)) (* (- 0 1) (* b__112 a__46 a__56)) (* (- 0 1) (* b__112 a__11 a__47 a__56)) (* (- 0 1) (* b__112 a__11 a__57))) 0) (>= (+ (* b__112 a__36 a__10) (* (- 0 1) (* b__112 a__12 a__47 a__56)) (* (- 0 1) (* b__112 a__12 a__57))) 0) (>= (+ (* b__112 a__9) (* b__112 a__39 a__10) (* (- 0 1) (* b__112 a__58)) (* (- 0 1) (* b__112 a__21 a__59)) (* (- 0 1) (* b__112 a__11 a__22 a__59)) (* (- 0 1) (* b__112 a__11 a__60))) 0) (>= (+ (* b__112 a__40 a__10) (* (- 0 1) (* b__112 a__12 a__22 a__59)) (* (- 0 1) (* b__112 a__12 a__60))) 0) (>= (+ (* b__111 a__21) (* b__111 a__33 a__22) (* (- 0 1) (* b__111 a__5))) 0) (>= (+ (* b__111 a__21) (* (- 0 1) (* b__111 a__51))) 0) (>= (+ (* b__111 a__22) (* (- 0 1) (* b__111 a__52))) 0) (>= (+ (* b__111 a__18) (* (- 0 1) (* b__111 a__48))) 0) (>= (+ (* b__111 a__19) (* (- 0 1) (* b__111 a__49))) 0) (>= (+ (* b__111 a__20) (* (- 0 1) (* b__111 a__50))) 0) (>= (+ (* b__111 a__30) (* b__111 a__34 a__31) (* (- 0 1) (* b__111 a__61)) (* (- 0 1) (* b__111 a__18 a__62)) (* (- 0 1) (* b__111 a__63 a__19 a__62)) (* (- 0 1) (* b__111 a__23 a__20 a__62))) 0) (>= (+ (* b__111 a__32) (* (- 0 1) (* b__111 a__64 a__19 a__62)) (* (- 0 1) (* b__111 a__24 a__20 a__62))) 0) (>= (+ (* b__111 a__30) (* b__111 a__41 a__31) (* b__111 a__43 a__32) (* (- 0 1) (* b__111 a__65)) (* (- 0 1) (* b__111 a__18 a__66)) (* (- 0 1) (* b__111 a__18 a__19 a__66)) (* (- 0 1) (* b__111 a__63 a__19 a__19 a__66)) (* (- 0 1) (* b__111 a__11 a__64 a__19 a__19 a__66)) (* (- 0 1) (* b__111 a__23 a__20 a__19 a__66)) (* (- 0 1) (* b__111 a__11 a__24 a__20 a__19 a__66)) (* (- 0 1) (* b__111 a__48 a__20 a__66)) (* (- 0 1) (* b__111 a__18 a__49 a__20 a__66)) (* (- 0 1) (* b__111 a__9 a__19 a__49 a__20 a__66)) (* (- 0 1) (* b__111 a__51 a__20 a__20 a__49 a__66)) (* (- 0 1) (* b__111 a__48 a__50 a__20 a__66)) (* (- 0 1) (* b__111 a__9 a__49 a__50 a__20 a__66)) (* (- 0 1) (* b__111 a__51 a__50 a__50 a__20 a__66)) (* (- 0 1) (* b__111 a__11 a__67))) 0) (>= (+ (* b__111 a__42 a__31) (* (- 0 1) (* b__111 a__10 a__19 a__49 a__20 a__66)) (* (- 0 1) (* b__111 a__52 a__20 a__20 a__49 a__66)) (* (- 0 1) (* b__111 a__68))) 0) (>= (+ (* b__111 a__44 a__32) (* (- 0 1) (* b__111 a__10 a__49 a__50 a__20 a__66)) (* (- 0 1) (* b__111 a__52 a__50 a__50 a__20 a__66)) (* (- 0 1) (* b__111 a__69))) 0) (>= (+ (* b__111 a__45 a__32) (* (- 0 1) (* b__111 a__12 a__64 a__19 a__19 a__66)) (* (- 0 1) (* b__111 a__12 a__24 a__20 a__19 a__66)) (* (- 0 1) (* b__111 a__12 a__67))) 0) (>= (+ (* b__111 a__37) (* b__111 a__43 a__38) (* (- 0 1) (* b__111 a__70)) (* (- 0 1) (* b__111 a__18 a__71)) (* (- 0 1) (* b__111 a__18 a__19 a__71)) (* (- 0 1) (* b__111 a__73 a__19 a__19 a__71)) (* (- 0 1) (* b__111 a__11 a__74 a__19 a__19 a__71)) (* (- 0 1) (* b__111 a__23 a__20 a__19 a__71)) (* (- 0 1) (* b__111 a__11 a__24 a__20 a__19 a__71)) (* (- 0 1) (* b__111 a__48 a__20 a__71)) (* (- 0 1) (* b__111 a__9 a__49 a__20 a__71)) (* (- 0 1) (* b__111 a__51 a__50 a__20 a__71)) (* (- 0 1) (* b__111 a__11 a__72))) 0) (>= (+ (* b__111 a__44 a__38) (* (- 0 1) (* b__111 a__10 a__49 a__20 a__71)) (* (- 0 1) (* b__111 a__52 a__50 a__20 a__71))) 0) (>= (+ (* b__111 a__45 a__38) (* (- 0 1) (* b__111 a__12 a__74 a__19 a__19 a__71)) (* (- 0 1) (* b__111 a__12 a__24 a__20 a__19 a__71)) (* (- 0 1) (* b__111 a__12 a__72))) 0) (>= (+ (* b__112 a__55) (* b__112 a__5 a__56) (* (- 0 1) (* b__112 a__75)) (* (- 0 1) (* b__112 a__73 a__76)) (* (- 0 1) (* b__112 a__11 a__74 a__76))) 0) (>= (+ (* b__112 a__57) (* (- 0 1) (* b__112 a__12 a__74 a__76))) 0) (>= (+ (* b__112 a__58) (* b__112 a__5 a__59) (* (- 0 1) (* b__112 a__77)) (* (- 0 1) (* b__112 a__9 a__78)) (* (- 0 1) (* b__112 a__11 a__10 a__78))) 0) (>= (+ (* b__112 a__60) (* (- 0 1) (* b__112 a__12 a__10 a__78))) 0) (>= (+ (* b__113 a__63) (* (- 0 1) (* b__113 a__79)) (* (- 0 1) (* b__113 a__46 a__80)) (* (- 0 1) (* b__113 a__11 a__47 a__80)) (* (- 0 1) (* b__113 a__11 a__81))) 0) (>= (+ (* b__113 a__64) (* (- 0 1) (* b__113 a__12 a__47 a__80)) (* (- 0 1) (* b__113 a__12 a__81))) 0) (>= (+ (* b__113 a__63) (* b__113 a__15 a__64) (* (- 0 1) (* b__113 a__82)) (* (- 0 1) (* b__113 a__18 a__83)) (* (- 0 1) (* b__113 a__21 a__19 a__83)) (* (- 0 1) (* b__113 a__11 a__22 a__19 a__83)) (* (- 0 1) (* b__113 a__23 a__20 a__83)) (* (- 0 1) (* b__113 a__11 a__24 a__20 a__83)) (* (- 0 1) (* b__113 a__11 a__84)) (* (- 0 1) (* b__113 a__11 a__85))) 0) (>= (+ (* b__113 a__16 a__64) (* (- 0 1) (* b__113 a__12 a__22 a__19 a__83)) (* (- 0 1) (* b__113 a__12 a__84))) 0) (>= (+ (* b__113 a__17 a__64) (* (- 0 1) (* b__113 a__12 a__24 a__20 a__83)) (* (- 0 1) (* b__113 a__12 a__85))) 0) (>= (+ (* b__111 a__65) (* b__111 a__5 a__66) (* (- 0 1) (* b__111 a__43)) (* (- 0 1) (* b__111 a__11 a__44)) (* (- 0 1) (* b__111 a__27 a__45)) (* (- 0 1) (* b__111 a__11 a__28 a__45)) (* (- 0 1) (* b__111 a__11 a__29 a__45))) 0) (>= (+ (* b__111 a__67) (* (- 0 1) (* b__111 a__12 a__29 a__45))) 0) (>= (+ (* b__111 a__68) (* (- 0 1) (* b__111 a__12 a__28 a__45))) 0) (>= (+ (* b__111 a__69) (* (- 0 1) (* b__111 a__12 a__44))) 0) (>= (+ (* b__114 a__73) (* b__114 a__15 a__74) (* (- 0 1) (* b__114 a__86)) (* (- 0 1) (* b__114 a__18 a__87)) (* (- 0 1) (* b__114 a__21 a__19 a__87)) (* (- 0 1) (* b__114 a__11 a__22 a__19 a__87)) (* (- 0 1) (* b__114 a__23 a__20 a__87)) (* (- 0 1) (* b__114 a__11 a__24 a__20 a__87)) (* (- 0 1) (* b__114 a__11 a__88)) (* (- 0 1) (* b__114 a__11 a__89))) 0) (>= (+ (* b__114 a__16 a__74) (* (- 0 1) (* b__114 a__12 a__22 a__19 a__87)) (* (- 0 1) (* b__114 a__12 a__88))) 0) (>= (+ (* b__114 a__17 a__74) (* (- 0 1) (* b__114 a__12 a__24 a__20 a__87)) (* (- 0 1) (* b__114 a__12 a__89))) 0) (>= (+ (* b__114 a__73) (* b__114 a__27 a__74) (* (- 0 1) (* b__114 a__90)) (* (- 0 1) (* b__114 a__18 a__91)) (* (- 0 1) (* b__114 a__21 a__19 a__91)) (* (- 0 1) (* b__114 a__11 a__22 a__19 a__91)) (* (- 0 1) (* b__114 a__23 a__20 a__91)) (* (- 0 1) (* b__114 a__11 a__24 a__20 a__91)) (* (- 0 1) (* b__114 a__11 a__92)) (* (- 0 1) (* b__114 a__11 a__93))) 0) (>= (+ (* b__114 a__28 a__74) (* (- 0 1) (* b__114 a__12 a__22 a__19 a__91)) (* (- 0 1) (* b__114 a__12 a__92))) 0) (>= (+ (* b__114 a__29 a__74) (* (- 0 1) (* b__114 a__12 a__24 a__20 a__91)) (* (- 0 1) (* b__114 a__12 a__93))) 0) (>= (+ (* b__111 a__70) (* b__111 a__5 a__71) (* (- 0 1) (* b__111 a__41)) (* (- 0 1) (* b__111 a__37 a__42)) (* (- 0 1) (* b__111 a__11 a__38 a__42))) 0) (>= (+ (* b__111 a__72) (* (- 0 1) (* b__111 a__12 a__38 a__42))) 0) (>= (+ (* b__113 a__79) (* b__113 a__5 a__80) (* (- 0 1) (* b__113 a__94)) (* (- 0 1) (* b__113 a__73 a__95)) (* (- 0 1) (* b__113 a__11 a__74 a__95))) 0) (>= (+ (* b__113 a__81) (* (- 0 1) (* b__113 a__12 a__74 a__95))) 0) (>= (+ (* b__113 a__82) (* b__113 a__5 a__83) (* (- 0 1) (* b__113 a__96)) (* (- 0 1) (* b__113 a__9 a__97)) (* (- 0 1) (* b__113 a__11 a__10 a__97)) (* (- 0 1) (* b__113 a__11 a__98))) 0) (>= (+ (* b__113 a__84) (* (- 0 1) (* b__113 a__12 a__10 a__97))) 0) (>= (+ (* b__113 a__85) (* (- 0 1) (* b__113 a__12 a__98))) 0) (>= (+ (* b__114 a__86) (* b__114 a__5 a__87) (* (- 0 1) (* b__114 a__99)) (* (- 0 1) (* b__114 a__9 a__100)) (* (- 0 1) (* b__114 a__11 a__10 a__100)) (* (- 0 1) (* b__114 a__11 a__101))) 0) (>= (+ (* b__114 a__88) (* (- 0 1) (* b__114 a__12 a__10 a__100))) 0) (>= (+ (* b__114 a__89) (* (- 0 1) (* b__114 a__12 a__101))) 0) (>= (+ (* b__114 a__90) (* b__114 a__5 a__91) (* (- 0 1) (* b__114 a__102)) (* (- 0 1) (* b__114 a__9 a__103)) (* (- 0 1) (* b__114 a__11 a__10 a__103)) (* (- 0 1) (* b__114 a__11 a__104))) 0) (>= (+ (* b__114 a__92) (* (- 0 1) (* b__114 a__12 a__10 a__103))) 0) (>= (+ (* b__114 a__93) (* (- 0 1) (* b__114 a__12 a__104))) 0) (>= (+ (* b__113 a__96) (* b__113 a__5 a__97) (* (- 0 1) (* b__113 a__105)) (* (- 0 1) (* b__113 a__63 a__106)) (* (- 0 1) (* b__113 a__11 a__64 a__106))) 0) (>= (+ (* b__113 a__98) (* (- 0 1) (* b__113 a__12 a__64 a__106))) 0) (>= (+ (* b__114 a__99) (* b__114 a__5 a__100) (* (- 0 1) (* b__114 a__107)) (* (- 0 1) (* b__114 a__73 a__108)) (* (- 0 1) (* b__114 a__11 a__74 a__108))) 0) (>= (+ (* b__114 a__101) (* (- 0 1) (* b__114 a__12 a__74 a__108))) 0) (>= (+ (* b__114 a__102) (* b__114 a__5 a__103) (* (- 0 1) (* b__114 a__109)) (* (- 0 1) (* b__114 a__63 a__110)) (* (- 0 1) (* b__114 a__11 a__64 a__110))) 0) (>= (+ (* b__114 a__104) (* (- 0 1) (* b__114 a__12 a__64 a__110))) 0) (>= (+ (* b__111 a__30) (* (- 0 1) (* b__111 a__27))) 0) (>= (+ (* b__111 a__31) (* (- 0 1) (* b__111 a__28))) 0) (>= (+ (* b__111 a__32) (* (- 0 1) (* b__111 a__29))) 0) (>= (+ (* b__113 a__63) (* b__113 a__25 a__64) (* (- 0 1) (* b__113 a__5))) 0) (>= (+ (* b__111 a__61) (* b__111 a__5 a__62) (* (- 0 1) (* b__111 a__54))) 0) (>= (+ (* b__111 a__46) (* b__111 a__53 a__47) (* (- 0 1) (* b__111 a__5))) 0) (>= (+ (* b__111 a__46) (* b__111 a__25 a__47) (* (- 0 1) (* b__111 a__5))) 0) (>= (+ (* b__111 a__46) (* (- 0 1) (* b__111 a__23))) 0) (>= (+ (* b__111 a__47) (* (- 0 1) (* b__111 a__24))) 0) (>= (+ (* b__111 a__37) (* b__111 a__54 a__38) (* (- 0 1) (* b__111 a__34))) 0) (>= (+ (* b__111 a__37) (* (- 0 1) (* b__111 a__35))) 0) (>= (+ (* b__111 a__38) (* (- 0 1) (* b__111 a__36))) 0) (>= (+ (* b__114 a__73) (* b__114 a__53 a__74) (* (- 0 1) (* b__114 a__5))) 0) (>= (+ (* b__112 a__75) (* b__112 a__5 a__76) (* (- 0 1) (* b__112 a__5))) 0) (>= (+ (* b__112 a__77) (* b__112 a__5 a__78) (* (- 0 1) (* b__112 a__5))) 0) (>= (+ (* b__114 a__109) (* b__114 a__5 a__110) (* (- 0 1) (* b__114 a__5))) 0) (>= (+ (* b__113 a__105) (* b__113 a__5 a__106) (* (- 0 1) (* b__113 a__5))) 0) (>= (+ (* b__114 a__107) (* b__114 a__5 a__108) (* (- 0 1) (* b__114 a__5))) 0) (>= (+ (* b__111 a__41) (* (- 0 1) (* b__111 a__39))) 0) (>= (+ (* b__111 a__42) (* (- 0 1) (* b__111 a__40))) 0) (>= (+ (* b__113 a__94) (* b__113 a__5 a__95) (* (- 0 1) (* b__113 a__5))) 0) (>= (+ (* b__111 a__43) (* (- 0 1) (* b__111 a__15))) 0) (>= (+ (* b__111 a__44) (* (- 0 1) (* b__111 a__16))) 0) (>= (+ (* b__111 a__45) (* (- 0 1) (* b__111 a__17))) 0) (>= (+ (* b__111 a__26) (* (- 0 1) (* b__111 a__43)) (* (- 0 1) (* b__111 a__34 a__44)) (* (- 0 1) (* b__111 a__25 a__45))) 0) (>= (+ (* b__111 a__26) (* (- 0 1) (* b__111 a__25))) 0) (>= (+ (* b__111 a__34) (* (- 0 1) (* b__111 a__33))) 0) (>= (+ (* b__111 a__54) (* (- 0 1) (* b__111 a__53))) 0) (>= (+ a__1 (* a__5 a__2) (* (- 0 1) a__6) (* (- 0 1) (* a__9 a__7)) (* (- 0 1) (* a__11 a__10 a__7)) (* (- 0 1) (* a__11 a__8))) 0) (>= (+ a__6 (* a__5 a__7) (* (- 0 1) a__13) (* (- 0 1) (* a__11 a__14))) 0) (>= (+ a__13 (* a__15 a__14) (* (- 0 1) a__1) (* (- 0 1) (* a__18 a__2)) (* (- 0 1) (* a__21 a__19 a__2)) (* (- 0 1) (* a__11 a__22 a__19 a__2)) (* (- 0 1) (* a__23 a__20 a__2)) (* (- 0 1) (* a__11 a__24 a__20 a__2)) (* (- 0 1) (* a__11 a__3)) (* (- 0 1) (* a__11 a__4))) 0) (not (and (= (+ a__1 (* a__5 a__2) (* (- 0 1) a__6) (* (- 0 1) (* a__9 a__7)) (* (- 0 1) (* a__11 a__10 a__7)) (* (- 0 1) (* a__11 a__8))) 0) (= (+ a__6 (* a__5 a__7) (* (- 0 1) a__13) (* (- 0 1) (* a__11 a__14))) 0) (= (+ a__13 (* a__15 a__14) (* (- 0 1) a__1) (* (- 0 1) (* a__18 a__2)) (* (- 0 1) (* a__21 a__19 a__2)) (* (- 0 1) (* a__11 a__22 a__19 a__2)) (* (- 0 1) (* a__23 a__20 a__2)) (* (- 0 1) (* a__11 a__24 a__20 a__2)) (* (- 0 1) (* a__11 a__3)) (* (- 0 1) (* a__11 a__4))) 0))) (>= b__111 0) (>= 1 b__111) (>= a__14 0) (>= a__2 0) (>= a__3 0) (>= a__4 0) (>= a__8 0) (>= a__56 0) (>= a__7 0) (>= a__57 0) (>= a__59 0) (>= a__60 0) (>= a__10 0) (>= a__76 0) (>= a__87 0) (>= a__88 0) (>= a__89 0) (>= a__101 0) (>= a__91 0) (>= a__92 0) (>= a__93 0) (>= a__104 0) (>= a__74 0) (>= a__80 0) (>= a__110 0) (>= a__81 0) (>= a__83 0) (>= a__84 0) (>= a__85 0) (>= a__98 0) (>= a__64 0) (>= b__112 0) (>= 1 b__112) (>= a__97 0) (>= a__62 0) (>= a__19 0) (>= a__66 0) (>= a__100 0) (>= a__71 0) (>= a__103 0) (>= a__20 0) (>= a__49 0) (>= a__95 0) (>= a__50 0) (>= b__113 0) (>= 1 b__113) (>= b__114 0) (>= 1 b__114) (>= a__12 0) (>= a__16 0) (>= a__22 0) (>= a__17 0) (>= a__24 0) (>= a__11 0) (>= a__25 0) (>= a__26 0) (>= a__27 0) (>= a__30 0) (>= a__28 0) (>= a__31 0) (>= a__29 0) (>= a__32 0) (>= a__33 0) (>= a__34 0) (>= a__35 0) (>= a__37 0) (>= a__36 0) (>= a__38 0) (>= a__39 0) (>= a__41 0) (>= a__40 0) (>= a__42 0) (>= a__15 0) (>= a__43 0) (>= a__44 0) (>= a__45 0) (>= a__23 0) (>= a__46 0) (>= a__47 0) (>= a__18 0) (>= a__21 0) (>= a__5 0) (>= a__48 0) (>= a__51 0) (>= a__52 0) (>= a__53 0) (>= a__54 0) (>= a__9 0) (>= a__55 0) (>= a__58 0) (>= a__61 0) (>= a__63 0) (>= a__65 0) (>= a__67 0) (>= a__68 0) (>= a__69 0) (>= a__70 0) (>= a__73 0) (>= a__72 0) (>= a__75 0) (>= a__77 0) (>= a__78 0) (>= a__79 0) (>= a__82 0) (>= a__86 0) (>= a__90 0) (>= a__94 0) (>= a__96 0) (>= a__99 0) (>= a__102 0) (>= a__105 0) (>= a__106 0) (>= a__107 0) (>= a__108 0) (>= a__109 0) (>= a__1 0) (>= a__6 0) (>= a__13 0)))
(check-sat)
;;(get-assignment)
;;(get-model)
(exit)
